163 108 38 144 137 121 8 185 30 
48 24 169 190 184 111 95 145 91 70 120 
42 172 62 26 159 25 71 123 11 64 
181 130 150 44 90 79 73 93 193 19 39 
152 173 117 109 189 125 192 50 55 81 82 146 
153 28 6 43 119 21 166 178 96 34 2 36 
199 84 139 129 106 126 76 97 
88 155 151 160 74 116 141 67 175 
4 156 7 46 138 186 80 158 66 83 148 
165 85 128 32 114 52 101 174 60 1 
182 57 195 147 40 23 86 87 115 154 
47 149 171 78 187 110 41 194 107 33 157 
37 100 177 99 94 112 22 17 13 75 
131 102 167 196 161 198 135 
54 140 143 59 176 113 191 58 134 
162 49 89 188 29 
142 15 179 18 68 3 136 
200 103 10 77 122 
92 124 183 180 72 
9 16 51 
12 105 
133 31 27 
197 104 164 20 
45 56 65 
63 14 132 
168 53 
5 
127 118 69 
35 
170 
98 
61 

